benchmarks_CP/INST_49x49/40/inst49x49_40_18.dzn
S=7;
start=[|
-1,	-1,	41,	-1,	-1,	-1,	32,	20,	13,	-1,	-1,	-1,	33,	-1,	-1,	-1,	-1,	47,	-1,	-1,	-1,	36,	28,	-1,	-1,	38,	-1,	-1,	45,	1,	-1,	21,	6,	27,	49,	19,	-1,	-1,	10,	-1,	8,	-1,	29,	-1,	34,	-1,	-1,	-1,	-1|
-1,	47,	-1,	-1,	-1,	-1,	-1,	10,	21,	27,	-1,	-1,	-1,	-1,	-1,	41,	-1,	3,	31,	-1,	44,	23,	-1,	-1,	-1,	-1,	29,	-1,	-1,	-1,	-1,	2,	-1,	-1,	30,	-1,	-1,	-1,	-1,	-1,	20,	38,	-1,	-1,	17,	22,	45,	48,	40|
-1,	15,	-1,	-1,	-1,	-1,	24,	-1,	48,	-1,	44,	12,	-1,	-1,	-1,	-1,	-1,	-1,	-1,	4,	-1,	-1,	-1,	18,	8,	-1,	-1,	-1,	-1,	-1,	-1,	43,	20,	47,	5,	-1,	-1,	34,	-1,	26,	-1,	37,	16,	-1,	-1,	-1,	-1,	2,	32|
18,	-1,	-1,	-1,	-1,	46,	-1,	-1,	26,	23,	-1,	-1,	-1,	-1,	45,	-1,	-1,	34,	-1,	-1,	-1,	-1,	-1,	6,	-1,	-1,	-1,	-1,	-1,	8,	48,	-1,	-1,	-1,	-1,	-1,	-1,	-1,	-1,	-1,	49,	31,	-1,	47,	21,	-1,	-1,	36,	-1|
-1,	-1,	48,	35,	-1,	21,	33,	-1,	22,	-1,	-1,	-1,	-1,	19,	-1,	12,	-1,	-1,	20,	29,	-1,	15,	-1,	2,	32,	-1,	-1,	41,	-1,	3,	-1,	-1,	-1,	34,	17,	1,	-1,	27,	-1,	-1,	-1,	40,	-1,	-1,	-1,	26,	-1,	-1,	-1|
7,	-1,	-1,	-1,	20,	-1,	-1,	-1,	34,	-1,	32,	-1,	15,	-1,	37,	23,	-1,	-1,	-1,	26,	2,	3,	-1,	-1,	-1,	-1,	-1,	33,	-1,	19,	-1,	39,	-1,	-1,	-1,	-1,	45,	-1,	-1,	-1,	-1,	22,	12,	8,	31,	-1,	28,	-1,	-1|
-1,	-1,	-1,	26,	1,	-1,	-1,	-1,	31,	-1,	29,	-1,	11,	-1,	8,	-1,	-1,	5,	-1,	21,	-1,	44,	7,	-1,	17,	-1,	43,	-1,	28,	22,	4,	9,	-1,	-1,	-1,	-1,	-1,	-1,	47,	32,	-1,	12,	25,	37,	19,	20,	-1,	-1,	-1|
-1,	26,	44,	29,	48,	6,	-1,	-1,	33,	9,	-1,	-1,	16,	-1,	-1,	-1,	-1,	1,	-1,	-1,	-1,	-1,	-1,	-1,	-1,	22,	21,	-1,	-1,	35,	2,	-1,	-1,	-1,	42,	-1,	-1,	36,	-1,	-1,	-1,	46,	34,	11,	-1,	41,	18,	47,	-1|
-1,	20,	-1,	-1,	24,	31,	2,	14,	-1,	47,	43,	-1,	-1,	-1,	42,	-1,	30,	-1,	-1,	-1,	-1,	29,	-1,	11,	-1,	13,	9,	-1,	-1,	-1,	40,	19,	-1,	-1,	7,	39,	-1,	-1,	-1,	-1,	1,	-1,	45,	5,	-1,	-1,	-1,	33,	46|
-1,	18,	32,	-1,	-1,	-1,	46,	-1,	-1,	-1,	-1,	13,	20,	-1,	-1,	-1,	-1,	-1,	4,	-1,	27,	10,	-1,	-1,	35,	-1,	-1,	-1,	-1,	-1,	-1,	-1,	-1,	-1,	-1,	-1,	-1,	-1,	-1,	-1,	-1,	-1,	21,	25,	-1,	-1,	-1,	29,	42|
-1,	12,	45,	-1,	-1,	-1,	-1,	-1,	-1,	4,	-1,	7,	42,	-1,	-1,	15,	34,	-1,	-1,	-1,	-1,	-1,	3,	-1,	-1,	-1,	40,	43,	-1,	-1,	16,	11,	-1,	10,	20,	24,	32,	47,	35,	-1,	-1,	29,	-1,	30,	-1,	-1,	6,	26,	-1|
-1,	-1,	33,	25,	4,	36,	-1,	-1,	-1,	-1,	45,	2,	48,	46,	44,	-1,	40,	-1,	43,	-1,	24,	-1,	-1,	19,	-1,	-1,	-1,	-1,	-1,	29,	23,	-1,	-1,	28,	-1,	-1,	-1,	-1,	-1,	-1,	14,	-1,	3,	-1,	-1,	-1,	49,	-1,	7|
41,	7,	-1,	40,	15,	43,	5,	-1,	-1,	-1,	11,	36,	6,	-1,	29,	-1,	21,	-1,	-1,	16,	-1,	-1,	-1,	-1,	-1,	-1,	-1,	24,	-1,	-1,	8,	-1,	38,	32,	47,	49,	-1,	9,	-1,	23,	12,	-1,	-1,	20,	-1,	-1,	-1,	-1,	-1|
42,	-1,	-1,	28,	11,	17,	22,	-1,	15,	-1,	34,	35,	-1,	3,	-1,	-1,	38,	31,	-1,	46,	49,	2,	8,	-1,	7,	5,	47,	-1,	12,	-1,	-1,	-1,	-1,	-1,	-1,	44,	10,	13,	45,	-1,	-1,	-1,	1,	-1,	27,	-1,	-1,	32,	4|
32,	19,	-1,	-1,	-1,	-1,	-1,	41,	-1,	-1,	-1,	-1,	40,	48,	9,	28,	-1,	-1,	-1,	33,	-1,	4,	5,	-1,	21,	-1,	15,	2,	27,	-1,	-1,	-1,	-1,	-1,	-1,	-1,	43,	-1,	-1,	-1,	-1,	8,	-1,	-1,	-1,	-1,	-1,	-1,	36|
-1,	-1,	25,	-1,	26,	-1,	37,	17,	-1,	-1,	-1,	-1,	9,	-1,	-1,	6,	42,	-1,	34,	40,	-1,	47,	-1,	-1,	-1,	-1,	-1,	-1,	-1,	38,	-1,	-1,	-1,	-1,	-1,	-1,	-1,	21,	18,	29,	32,	-1,	-1,	-1,	-1,	39,	-1,	-1,	41|
-1,	29,	-1,	-1,	-1,	2,	42,	24,	-1,	5,	-1,	-1,	-1,	33,	-1,	27,	-1,	-1,	-1,	38,	-1,	-1,	17,	-1,	45,	-1,	-1,	8,	20,	-1,	6,	47,	-1,	-1,	31,	-1,	28,	-1,	-1,	-1,	4,	-1,	-1,	-1,	-1,	-1,	19,	46,	-1|
4,	48,	-1,	39,	-1,	-1,	-1,	-1,	-1,	-1,	-1,	-1,	-1,	-1,	36,	-1,	25,	23,	47,	12,	-1,	-1,	-1,	-1,	31,	11,	24,	-1,	33,	5,	30,	-1,	8,	-1,	40,	38,	-1,	-1,	-1,	42,	41,	-1,	-1,	-1,	3,	-1,	-1,	44,	-1|
-1,	-1,	-1,	7,	-1,	28,	-1,	-1,	4,	46,	49,	-1,	-1,	1,	32,	-1,	-1,	-1,	3,	18,	-1,	-1,	-1,	-1,	-1,	37,	-1,	42,	-1,	-1,	-1,	-1,	-1,	-1,	-1,	-1,	-1,	14,	-1,	47,	31,	-1,	-1,	10,	-1,	38,	-1,	24,	-1|
-1,	44,	38,	-1,	-1,	-1,	45,	-1,	-1,	21,	-1,	-1,	-1,	-1,	-1,	-1,	37,	-1,	22,	-1,	-1,	12,	-1,	-1,	-1,	29,	-1,	-1,	48,	2,	42,	13,	-1,	-1,	-1,	-1,	-1,	-1,	-1,	-1,	-1,	-1,	-1,	-1,	-1,	15,	7,	-1,	-1|
-1,	-1,	-1,	-1,	-1,	3,	-1,	-1,	-1,	-1,	28,	-1,	19,	16,	-1,	31,	-1,	43,	-1,	-1,	-1,	34,	-1,	-1,	-1,	35,	-1,	-1,	-1,	15,	18,	-1,	-1,	4,	32,	-1,	-1,	45,	-1,	-1,	2,	-1,	-1,	-1,	37,	-1,	-1,	-1,	-1|
15,	-1,	-1,	-1,	34,	-1,	-1,	49,	-1,	-1,	-1,	-1,	47,	-1,	-1,	19,	18,	27,	5,	-1,	-1,	-1,	38,	45,	9,	43,	16,	3,	-1,	-1,	-1,	-1,	12,	-1,	13,	-1,	-1,	-1,	31,	46,	-1,	-1,	-1,	-1,	24,	35,	8,	41,	48|
-1,	-1,	-1,	45,	18,	32,	-1,	38,	16,	-1,	23,	-1,	-1,	13,	-1,	-1,	-1,	44,	-1,	-1,	-1,	40,	-1,	-1,	-1,	47,	11,	-1,	46,	-1,	-1,	-1,	-1,	43,	-1,	-1,	33,	1,	-1,	-1,	29,	19,	6,	-1,	12,	49,	-1,	-1,	-1|
-1,	17,	37,	-1,	12,	-1,	31,	11,	46,	-1,	-1,	-1,	-1,	-1,	40,	-1,	-1,	10,	-1,	-1,	-1,	41,	-1,	-1,	6,	-1,	-1,	18,	22,	48,	-1,	-1,	-1,	-1,	33,	28,	-1,	-1,	-1,	16,	-1,	-1,	47,	-1,	14,	7,	-1,	42,	-1|
13,	30,	-1,	-1,	-1,	41,	-1,	-1,	19,	12,	6,	17,	-1,	-1,	-1,	-1,	31,	8,	-1,	-1,	-1,	37,	-1,	46,	-1,	33,	-1,	10,	-1,	-1,	44,	34,	49,	24,	-1,	-1,	15,	-1,	-1,	-1,	-1,	-1,	-1,	-1,	-1,	9,	-1,	3,	29|
1,	21,	19,	-1,	40,	22,	6,	-1,	-1,	-1,	41,	-1,	-1,	44,	-1,	47,	-1,	-1,	-1,	25,	-1,	-1,	-1,	26,	-1,	-1,	-1,	23,	-1,	9,	-1,	38,	5,	-1,	-1,	-1,	-1,	-1,	49,	-1,	10,	20,	-1,	31,	46,	-1,	-1,	-1,	-1|
-1,	-1,	47,	46,	-1,	-1,	49,	-1,	-1,	-1,	24,	34,	-1,	-1,	-1,	-1,	33,	39,	-1,	-1,	43,	-1,	-1,	-1,	36,	25,	12,	-1,	-1,	7,	27,	-1,	17,	-1,	45,	-1,	37,	-1,	41,	-1,	-1,	-1,	-1,	-1,	-1,	-1,	10,	-1,	-1|
5,	-1,	42,	-1,	-1,	16,	-1,	48,	40,	-1,	-1,	-1,	-1,	10,	12,	-1,	-1,	-1,	-1,	49,	9,	-1,	13,	22,	-1,	17,	-1,	-1,	4,	31,	21,	15,	19,	11,	-1,	-1,	47,	-1,	-1,	-1,	26,	-1,	-1,	-1,	-1,	27,	-1,	-1,	23|
-1,	-1,	-1,	-1,	32,	-1,	-1,	-1,	49,	19,	2,	-1,	-1,	-1,	-1,	13,	-1,	-1,	-1,	-1,	-1,	-1,	31,	27,	-1,	-1,	-1,	-1,	-1,	-1,	15,	8,	-1,	-1,	4,	-1,	-1,	37,	-1,	-1,	35,	-1,	33,	-1,	-1,	-1,	48,	-1,	-1|
-1,	-1,	-1,	-1,	-1,	-1,	-1,	16,	-1,	-1,	-1,	1,	-1,	-1,	48,	-1,	4,	-1,	42,	-1,	-1,	17,	43,	32,	-1,	39,	-1,	-1,	-1,	25,	28,	24,	-1,	-1,	9,	-1,	34,	46,	-1,	-1,	-1,	6,	-1,	26,	-1,	-1,	-1,	-1,	-1|
16,	-1,	-1,	-1,	45,	25,	-1,	-1,	9,	-1,	-1,	-1,	12,	-1,	41,	44,	-1,	-1,	-1,	34,	-1,	-1,	-1,	-1,	-1,	10,	1,	-1,	23,	-1,	7,	49,	32,	13,	27,	21,	31,	-1,	-1,	20,	15,	-1,	39,	-1,	4,	-1,	-1,	40,	-1|
17,	6,	-1,	11,	21,	-1,	-1,	-1,	-1,	13,	-1,	-1,	44,	-1,	-1,	-1,	-1,	-1,	-1,	-1,	-1,	24,	36,	-1,	12,	-1,	37,	28,	-1,	10,	39,	35,	-1,	26,	22,	16,	-1,	49,	-1,	-1,	47,	-1,	-1,	42,	-1,	-1,	-1,	27,	2|
9,	-1,	-1,	-1,	13,	-1,	-1,	3,	-1,	-1,	33,	-1,	-1,	23,	31,	35,	24,	6,	1,	-1,	-1,	-1,	25,	7,	26,	-1,	-1,	-1,	-1,	-1,	-1,	44,	-1,	12,	2,	14,	38,	39,	-1,	-1,	-1,	-1,	17,	29,	22,	-1,	-1,	19,	-1|
-1,	-1,	-1,	-1,	-1,	-1,	35,	45,	6,	20,	36,	-1,	-1,	-1,	27,	7,	-1,	16,	-1,	-1,	-1,	13,	-1,	-1,	-1,	18,	-1,	-1,	17,	-1,	-1,	33,	-1,	42,	-1,	12,	-1,	-1,	30,	43,	-1,	-1,	-1,	-1,	-1,	-1,	-1,	21,	-1|
-1,	14,	-1,	-1,	42,	-1,	-1,	-1,	-1,	7,	-1,	-1,	-1,	-1,	30,	-1,	32,	-1,	-1,	19,	39,	6,	-1,	33,	-1,	-1,	-1,	-1,	-1,	-1,	-1,	-1,	-1,	-1,	1,	-1,	-1,	-1,	-1,	-1,	3,	41,	-1,	-1,	44,	-1,	-1,	-1,	13|
-1,	-1,	-1,	4,	-1,	-1,	25,	37,	30,	6,	19,	45,	-1,	40,	2,	36,	-1,	-1,	27,	14,	42,	38,	-1,	-1,	-1,	15,	31,	39,	-1,	-1,	26,	-1,	48,	-1,	-1,	41,	-1,	-1,	-1,	13,	-1,	-1,	46,	-1,	49,	-1,	11,	23,	1|
-1,	-1,	-1,	6,	-1,	-1,	-1,	-1,	42,	-1,	-1,	-1,	-1,	12,	-1,	49,	-1,	33,	37,	-1,	-1,	45,	-1,	-1,	-1,	3,	-1,	-1,	-1,	24,	-1,	-1,	27,	-1,	18,	-1,	-1,	15,	-1,	38,	34,	30,	2,	-1,	-1,	40,	-1,	14,	-1|
-1,	-1,	-1,	-1,	27,	-1,	-1,	34,	35,	-1,	20,	33,	-1,	-1,	21,	-1,	11,	29,	-1,	-1,	40,	5,	-1,	-1,	-1,	-1,	4,	-1,	-1,	12,	-1,	-1,	7,	-1,	-1,	-1,	18,	-1,	22,	45,	-1,	16,	-1,	-1,	-1,	-1,	39,	37,	-1|
29,	-1,	-1,	-1,	2,	-1,	-1,	-1,	-1,	-1,	-1,	41,	-1,	-1,	22,	-1,	47,	-1,	-1,	8,	46,	1,	-1,	23,	13,	-1,	-1,	-1,	-1,	33,	9,	-1,	-1,	-1,	-1,	7,	-1,	-1,	3,	19,	-1,	39,	-1,	-1,	42,	-1,	-1,	-1,	-1|
-1,	1,	-1,	20,	-1,	15,	-1,	-1,	14,	22,	3,	28,	-1,	-1,	-1,	-1,	45,	24,	-1,	17,	-1,	-1,	-1,	35,	30,	-1,	-1,	9,	-1,	-1,	-1,	-1,	-1,	21,	-1,	-1,	-1,	-1,	-1,	-1,	5,	4,	13,	-1,	-1,	-1,	33,	8,	-1|
-1,	13,	24,	-1,	-1,	-1,	-1,	15,	18,	31,	-1,	-1,	-1,	2,	34,	-1,	-1,	41,	23,	-1,	-1,	-1,	10,	-1,	-1,	8,	-1,	-1,	-1,	-1,	36,	4,	-1,	5,	-1,	-1,	-1,	-1,	-1,	27,	-1,	1,	-1,	43,	48,	21,	-1,	16,	-1|
-1,	31,	-1,	-1,	19,	45,	12,	-1,	39,	8,	46,	-1,	7,	-1,	-1,	-1,	-1,	15,	16,	32,	-1,	-1,	-1,	-1,	48,	-1,	49,	11,	-1,	-1,	-1,	-1,	3,	-1,	-1,	2,	25,	-1,	-1,	-1,	-1,	-1,	10,	-1,	-1,	30,	-1,	9,	-1|
44,	25,	-1,	-1,	6,	-1,	-1,	-1,	23,	15,	-1,	-1,	35,	30,	39,	24,	-1,	38,	-1,	-1,	-1,	7,	1,	-1,	-1,	-1,	-1,	-1,	-1,	27,	47,	10,	-1,	-1,	43,	20,	3,	-1,	11,	-1,	-1,	28,	41,	13,	8,	-1,	-1,	31,	22|
28,	45,	1,	-1,	-1,	37,	10,	-1,	2,	-1,	-1,	14,	31,	-1,	7,	-1,	35,	21,	19,	-1,	-1,	20,	-1,	-1,	39,	23,	-1,	-1,	41,	44,	-1,	16,	-1,	8,	-1,	-1,	27,	-1,	-1,	-1,	-1,	-1,	-1,	-1,	-1,	-1,	-1,	-1,	47|
-1,	-1,	-1,	-1,	46,	-1,	-1,	-1,	45,	34,	-1,	-1,	-1,	-1,	-1,	4,	16,	-1,	-1,	-1,	-1,	-1,	-1,	-1,	18,	28,	-1,	-1,	14,	-1,	-1,	-1,	-1,	33,	39,	-1,	-1,	-1,	-1,	-1,	-1,	49,	35,	1,	-1,	19,	-1,	6,	-1|
12,	32,	-1,	31,	-1,	-1,	-1,	-1,	-1,	39,	-1,	-1,	-1,	7,	-1,	33,	-1,	42,	-1,	-1,	41,	-1,	-1,	-1,	-1,	-1,	-1,	16,	-1,	21,	46,	-1,	35,	-1,	23,	-1,	-1,	43,	-1,	-1,	45,	47,	11,	9,	36,	-1,	-1,	-1,	-1|
35,	-1,	-1,	9,	30,	24,	-1,	28,	36,	17,	-1,	-1,	-1,	-1,	-1,	-1,	-1,	-1,	-1,	-1,	1,	-1,	11,	-1,	-1,	-1,	33,	-1,	-1,	4,	3,	-1,	29,	31,	-1,	-1,	-1,	-1,	-1,	15,	-1,	-1,	-1,	-1,	-1,	-1,	-1,	-1,	38|
-1,	16,	-1,	3,	43,	11,	-1,	-1,	29,	-1,	-1,	38,	21,	4,	-1,	2,	-1,	-1,	-1,	-1,	34,	-1,	47,	37,	-1,	-1,	-1,	45,	7,	13,	-1,	40,	-1,	-1,	24,	-1,	-1,	23,	6,	31,	17,	9,	-1,	-1,	26,	-1,	14,	10,	12|
-1,	40,	15,	-1,	-1,	14,	-1,	-1,	10,	44,	5,	26,	-1,	-1,	-1,	-1,	-1,	-1,	11,	43,	6,	42,	-1,	13,	3,	19,	35,	-1,	-1,	-1,	-1,	-1,	28,	38,	48,	8,	-1,	29,	-1,	-1,	22,	-1,	20,	34,	33,	-1,	-1,	39,	-1|];
