sudoku-ls/benchmarks_LEQ/INST_49x49/40/inst49x49_40_18.txt
7
1
-1	-1	-1	-1	-1	12	32	20	13	40	37	3	-1	17	-1	9	-1	-1	7	-1	-1	-1	-1	-1	22	-1	46	-1	-1	-1	31	-1	6	-1	-1	19	39	5	-1	-1	8	2	-1	-1	-1	-1	15	-1	-1
-1	47	39	-1	8	-1	-1	10	-1	-1	-1	-1	-1	-1	-1	41	43	-1	-1	-1	-1	23	34	12	5	24	-1	-1	-1	26	25	2	33	-1	30	9	-1	11	-1	-1	20	38	49	4	-1	-1	-1	-1	40
-1	15	-1	17	-1	-1	-1	-1	-1	-1	-1	12	30	-1	-1	-1	22	13	33	-1	-1	9	19	18	8	-1	-1	35	-1	-1	14	-1	-1	47	5	-1	-1	-1	21	26	-1	37	16	6	-1	1	3	-1	32
-1	-1	9	-1	3	46	16	39	26	-1	-1	4	2	-1	45	-1	19	-1	-1	28	-1	-1	37	-1	-1	-1	-1	-1	-1	-1	48	-1	-1	41	-1	-1	-1	-1	-1	35	49	31	27	-1	-1	-1	44	-1	14
-1	4	-1	-1	-1	-1	-1	-1	-1	-1	-1	-1	-1	-1	6	-1	36	14	20	29	30	15	49	-1	32	-1	-1	41	42	3	-1	-1	13	-1	-1	-1	24	27	-1	44	-1	40	-1	23	-1	-1	-1	-1	-1
-1	49	-1	13	-1	30	29	6	-1	36	-1	9	15	-1	-1	23	-1	-1	25	-1	-1	3	-1	47	-1	-1	42	-1	-1	19	-1	-1	-1	16	-1	48	45	-1	4	-1	-1	22	-1	8	31	-1	-1	-1	-1
-1	-1	27	26	-1	-1	-1	-1	-1	-1	-1	-1	-1	-1	-1	-1	-1	5	-1	-1	10	44	-1	-1	-1	45	43	48	-1	-1	-1	-1	18	36	-1	-1	-1	30	-1	32	-1	12	-1	37	-1	20	-1	35	-1
39	-1	44	-1	-1	-1	30	23	-1	-1	-1	-1	-1	-1	-1	10	-1	1	-1	-1	-1	-1	45	-1	38	-1	-1	37	-1	-1	2	27	-1	17	42	43	-1	-1	-1	28	-1	46	-1	-1	-1	-1	18	-1	24
-1	-1	-1	-1	24	-1	2	14	-1	-1	-1	-1	-1	-1	42	17	-1	32	-1	-1	-1	29	-1	-1	-1	13	-1	4	-1	-1	-1	19	36	18	-1	-1	22	8	48	25	-1	-1	-1	-1	-1	23	-1	-1	-1
38	18	32	-1	-1	-1	46	8	17	24	-1	-1	20	39	5	-1	-1	-1	-1	-1	-1	-1	-1	-1	-1	-1	-1	12	15	14	-1	26	-1	-1	-1	-1	16	-1	2	7	11	-1	-1	-1	28	-1	40	29	42
21	-1	45	8	37	-1	-1	25	38	4	22	-1	-1	41	33	15	-1	-1	-1	13	-1	-1	-1	-1	14	-1	-1	43	-1	49	16	-1	-1	10	20	24	32	-1	-1	-1	-1	-1	44	-1	-1	-1	6	-1	-1
-1	27	33	25	4	36	13	30	-1	10	45	2	-1	-1	44	11	-1	-1	43	-1	-1	-1	-1	19	-1	26	41	17	-1	29	-1	1	-1	28	21	31	6	-1	42	-1	14	18	-1	-1	-1	8	-1	12	-1
41	7	-1	-1	-1	-1	-1	19	-1	1	-1	-1	-1	-1	-1	39	-1	-1	35	16	-1	46	-1	30	-1	-1	18	24	-1	-1	8	-1	-1	-1	47	49	4	-1	-1	-1	12	3	14	20	-1	17	-1	22	-1
-1	-1	-1	-1	-1	17	-1	-1	15	18	-1	-1	29	-1	20	-1	-1	-1	9	46	-1	2	8	39	7	5	-1	-1	-1	-1	-1	25	-1	-1	41	-1	10	-1	45	-1	-1	26	1	-1	-1	-1	-1	-1	-1
-1	19	-1	-1	14	-1	-1	-1	25	38	-1	-1	-1	-1	-1	-1	-1	30	39	33	-1	4	-1	3	-1	-1	-1	-1	-1	-1	37	-1	26	-1	10	-1	-1	20	-1	49	16	-1	31	18	-1	29	-1	-1	-1
-1	-1	25	-1	26	13	37	17	12	-1	8	-1	-1	-1	19	6	-1	2	-1	40	-1	-1	-1	-1	-1	-1	-1	7	-1	38	-1	3	11	35	44	22	-1	21	-1	-1	-1	-1	43	-1	45	-1	4	-1	41
49	-1	-1	34	-1	2	-1	-1	11	5	-1	-1	-1	-1	-1	-1	1	-1	10	-1	-1	-1	-1	44	45	-1	-1	8	20	39	-1	-1	23	-1	-1	36	28	-1	-1	12	4	-1	48	40	-1	-1	-1	-1	-1
-1	-1	16	39	-1	-1	-1	13	32	-1	7	-1	-1	6	-1	-1	25	-1	-1	-1	21	28	20	43	-1	11	-1	-1	-1	-1	-1	-1	-1	29	-1	38	-1	-1	-1	-1	41	10	-1	14	-1	2	-1	44	49
-1	-1	6	-1	-1	-1	-1	-1	4	-1	-1	23	45	-1	-1	26	-1	48	3	-1	-1	22	-1	-1	33	37	-1	42	16	41	-1	12	34	-1	36	-1	-1	-1	9	47	-1	44	-1	-1	11	38	-1	-1	-1
-1	-1	-1	-1	-1	33	45	-1	-1	21	-1	30	36	-1	-1	-1	-1	-1	-1	20	-1	12	-1	41	10	29	-1	19	-1	2	42	13	43	-1	-1	-1	-1	-1	25	1	-1	-1	-1	16	9	15	-1	34	-1
40	-1	-1	-1	10	3	-1	-1	-1	-1	28	42	-1	16	24	31	-1	43	-1	11	-1	34	-1	25	-1	-1	-1	-1	49	15	-1	-1	21	-1	-1	-1	-1	-1	39	33	2	-1	-1	-1	-1	47	-1	-1	17
-1	10	-1	14	34	-1	-1	49	1	-1	-1	32	47	-1	-1	19	-1	-1	-1	37	20	-1	-1	-1	9	-1	-1	-1	-1	-1	29	-1	12	-1	-1	40	2	-1	31	-1	44	-1	36	-1	-1	-1	-1	41	48
-1	-1	4	-1	18	-1	3	38	-1	-1	-1	22	-1	-1	17	-1	2	-1	-1	-1	-1	40	15	-1	-1	47	-1	-1	46	-1	-1	41	-1	-1	35	27	-1	1	-1	-1	29	-1	-1	39	-1	-1	-1	-1	37
-1	-1	37	-1	-1	26	31	-1	46	-1	9	20	25	36	-1	32	15	-1	-1	-1	4	-1	-1	5	6	-1	-1	-1	-1	-1	-1	-1	-1	39	-1	28	-1	-1	13	-1	30	-1	-1	-1	14	7	34	-1	-1
13	-1	-1	-1	-1	41	20	5	-1	12	6	17	-1	-1	26	-1	-1	8	21	1	-1	37	-1	-1	-1	33	7	-1	47	-1	-1	-1	-1	-1	14	4	15	-1	-1	-1	38	-1	-1	2	40	9	-1	3	29
-1	-1	-1	27	-1	-1	-1	43	-1	-1	41	-1	39	-1	35	47	28	-1	-1	25	-1	-1	-1	-1	-1	-1	8	23	-1	9	32	38	-1	-1	16	-1	12	-1	-1	-1	10	-1	30	-1	46	33	-1	-1	-1
-1	35	-1	46	-1	-1	-1	31	-1	26	24	-1	28	-1	-1	22	-1	39	-1	42	-1	19	-1	-1	36	25	-1	32	3	-1	-1	-1	-1	40	-1	5	-1	48	41	11	-1	-1	-1	-1	-1	-1	-1	-1	-1
-1	24	-1	33	-1	16	-1	-1	-1	-1	-1	18	-1	-1	12	14	-1	46	6	49	-1	-1	-1	-1	-1	17	2	1	-1	-1	-1	15	19	-1	-1	32	-1	-1	-1	3	-1	34	-1	-1	20	-1	43	-1	23
-1	-1	34	18	-1	47	-1	-1	49	-1	-1	39	-1	-1	-1	13	12	-1	-1	-1	-1	-1	-1	-1	-1	20	38	30	21	-1	15	-1	-1	3	-1	-1	9	-1	44	-1	-1	-1	33	-1	1	14	-1	7	-1
-1	-1	-1	44	-1	7	-1	16	-1	30	-1	-1	-1	-1	48	21	-1	20	-1	-1	-1	17	-1	32	23	-1	-1	15	-1	-1	-1	24	14	19	-1	-1	34	-1	-1	-1	18	-1	37	-1	-1	12	-1	45	-1
16	-1	29	5	-1	25	38	-1	-1	43	-1	8	-1	37	-1	44	46	-1	18	-1	-1	-1	-1	14	-1	-1	-1	47	-1	-1	-1	49	-1	-1	-1	-1	-1	2	33	20	-1	-1	-1	-1	-1	-1	-1	40	-1
-1	-1	-1	-1	-1	-1	-1	-1	-1	13	15	-1	44	-1	-1	3	29	25	-1	-1	33	24	36	-1	-1	-1	37	-1	-1	-1	39	-1	-1	-1	-1	16	-1	-1	1	-1	-1	5	-1	-1	-1	-1	-1	27	2
-1	-1	-1	-1	-1	-1	-1	-1	47	-1	-1	-1	-1	-1	31	-1	24	-1	-1	-1	-1	-1	-1	7	26	-1	-1	-1	18	-1	-1	-1	-1	-1	2	14	38	-1	-1	-1	42	32	17	29	-1	-1	41	-1	5
-1	-1	2	-1	-1	48	-1	45	-1	-1	-1	-1	-1	-1	27	-1	-1	-1	-1	-1	-1	13	22	-1	41	-1	-1	29	17	46	-1	33	-1	-1	37	12	-1	-1	30	43	-1	11	32	-1	15	-1	23	21	-1
-1	-1	12	-1	-1	20	-1	35	-1	-1	-1	-1	-1	18	-1	8	32	37	-1	-1	-1	-1	4	-1	2	-1	-1	5	11	36	-1	-1	47	-1	-1	-1	-1	-1	-1	-1	3	41	9	-1	-1	16	31	-1	13
10	-1	-1	4	16	44	-1	-1	30	6	19	-1	-1	40	-1	36	9	28	27	14	42	38	-1	34	-1	15	-1	-1	8	47	-1	32	48	-1	29	-1	-1	12	-1	13	24	-1	46	7	49	-1	11	-1	-1
-1	-1	-1	6	-1	35	-1	21	-1	-1	-1	-1	-1	-1	-1	49	-1	33	37	-1	19	45	-1	-1	-1	3	28	-1	-1	-1	-1	-1	-1	1	18	-1	8	15	-1	38	-1	-1	-1	36	29	-1	-1	-1	20
30	36	-1	42	-1	-1	-1	-1	35	25	-1	-1	1	-1	-1	-1	-1	-1	44	-1	-1	-1	-1	-1	47	-1	-1	46	10	-1	-1	14	7	49	-1	23	18	-1	-1	-1	-1	-1	-1	-1	38	-1	39	-1	-1
-1	-1	-1	38	-1	5	34	26	-1	16	10	41	32	49	22	-1	-1	35	-1	8	-1	1	-1	23	13	-1	-1	-1	30	33	-1	-1	-1	-1	6	7	-1	31	-1	19	21	-1	-1	-1	-1	44	-1	-1	-1
-1	-1	-1	-1	39	15	-1	36	-1	-1	3	28	-1	-1	-1	-1	-1	-1	-1	17	31	27	-1	35	-1	7	19	9	2	-1	-1	42	-1	21	-1	-1	-1	-1	-1	-1	-1	-1	13	-1	-1	-1	33	-1	34
-1	-1	24	-1	-1	-1	47	15	18	-1	38	-1	-1	2	-1	30	-1	-1	23	7	-1	-1	-1	42	-1	8	-1	-1	35	28	36	-1	-1	-1	11	-1	-1	-1	46	-1	-1	-1	19	-1	48	-1	-1	-1	45
22	31	-1	21	-1	-1	-1	-1	-1	-1	-1	-1	7	24	-1	-1	-1	-1	-1	32	38	-1	-1	-1	-1	-1	-1	11	44	40	41	-1	3	23	-1	-1	-1	26	-1	-1	-1	-1	-1	-1	5	-1	47	-1	-1
44	-1	-1	-1	6	-1	-1	9	-1	-1	16	49	35	30	39	-1	14	38	-1	45	5	7	1	-1	-1	-1	-1	-1	-1	-1	47	-1	-1	2	43	-1	-1	-1	-1	-1	33	-1	41	13	-1	37	-1	31	-1
-1	45	-1	49	33	-1	-1	-1	-1	-1	40	14	-1	-1	-1	-1	-1	21	19	-1	15	-1	6	-1	-1	-1	22	-1	-1	-1	-1	-1	-1	-1	26	-1	-1	-1	-1	18	13	-1	-1	-1	-1	-1	-1	-1	47
47	42	-1	-1	-1	-1	-1	12	-1	-1	-1	37	-1	8	-1	-1	-1	-1	-1	-1	13	-1	-1	38	-1	-1	32	40	-1	-1	17	-1	22	-1	-1	25	44	10	5	2	7	49	-1	1	-1	19	-1	-1	-1
-1	32	-1	31	-1	-1	4	-1	20	-1	-1	-1	-1	-1	18	-1	-1	42	-1	-1	-1	-1	24	-1	29	2	5	-1	34	-1	-1	-1	-1	-1	23	37	-1	43	40	-1	-1	-1	-1	-1	36	28	-1	49	-1
-1	-1	13	9	-1	-1	-1	-1	-1	17	-1	-1	-1	-1	-1	20	10	-1	32	-1	1	8	-1	49	27	41	-1	-1	37	-1	3	-1	-1	-1	-1	46	26	-1	19	-1	-1	21	-1	48	-1	-1	-1	-1	38
19	-1	5	3	-1	-1	39	33	-1	32	-1	-1	-1	-1	-1	-1	-1	-1	46	-1	-1	-1	47	-1	-1	-1	-1	-1	-1	-1	-1	-1	-1	20	-1	-1	41	-1	6	31	17	9	-1	-1	-1	-1	14	-1	-1
-1	-1	15	-1	7	-1	17	-1	-1	-1	-1	-1	41	-1	-1	37	-1	49	11	-1	6	-1	-1	-1	3	-1	-1	-1	-1	-1	-1	-1	28	38	-1	-1	-1	29	-1	-1	-1	24	-1	-1	-1	4	21	39	-1
49 
7 5 6 25
39 5 36 15
34 49 33 8
42 8 14 49
21 47 6 14
35 22 41 38
32 37 37 3
32 7 24 1
33 1 27 6
10 22 34 46
39 37 9 24
39 47 23 45
17 42 22 35
14 3 35 2
46 34 31 41
42 19 17 26
22 38 46 19
18 6 22 17
5 14 19 31
36 37 21 48
36 23 4 45
28 24 17 13
47 7 15 6
12 21 29 1
44 14 3 41
18 39 31 21
18 28 17 16
28 25 32 28
2 27 26 12
18 31 44 33
19 41 30 5
8 14 32 8
6 28 16 44
49 44 9 30
47 1 24 38
30 40 23 19
10 33 9 21
12 38 35 13
33 38 7 17
40 40 34 41
28 17 8 46
48 43 42 42
42 3 14 30
28 7 20 2
47 46 22 24
46 31 16 2
18 19 15 12
20 29 23 1
9 13 25 33
